Problem:    
Rows:       260
Columns:    89 (72 integer, 72 binary)
Non-zeros:  936
Status:     INTEGER OPTIMAL
Objective:  value = 52.466099 (MINimum)

   No.   Row name        Activity     Lower bound   Upper bound
------ ------------    ------------- ------------- -------------
     1 r.5                   1076.47             0               
     2 r.6                  -1003.53      -1007.94               
     3 r.7                   52.4661             0               
     4 r.8                   20.4676      -1008.43               
     5 r.9                   52.4661             0               
     6 r.10                  23.8098      -1007.94               
     7 r.11                  1076.47             0               
     8 r.12                 -1007.21      -1009.88               
     9 r.13                  1076.47             0               
    10 r.14                 -1021.36      -1023.17               
    11 r.15                  52.4661             0               
    12 r.16                   1.8039      -1021.85               
    13 r.17                  1076.47             0               
    14 r.18                 -1019.59      -1022.23               
    15 r.19                  52.4661             0               
    16 r.20                  20.4676      -1021.05               
    17 r.21                  52.4661             0               
    18 r.22                  43.3896      -1016.27               
    19 r.23                  1076.47             0               
    20 r.24                 -996.541      -1017.01               
    21 r.25                  52.4661             0               
    22 r.26                   1.8039      -1023.34               
    23 r.27                  1076.47             0               
    24 r.28                  -1022.2       -1022.2               
    25 r.29                  1076.47             0               
    26 r.30                 -971.534      -992.001               
    27 r.31                  52.4661             0               
    28 r.32                  52.4661      -966.366               
    29 r.33                  52.4661             0               
    30 r.34                  52.4661      -1007.15               
    31 r.35                  1076.47             0               
    32 r.36                 -971.534      -1014.92               
    33 r.37                        1             1             = 
    34 r.38                        1             1             = 
    35 r.39                        1             1             = 
    36 r.40                        1             1             = 
    37 r.41                        1             1             = 
    38 r.42                        1             1             = 
    39 r.43                        1             1             = 
    40 r.44                        1             1             = 
    41 r.45                     1025             2               
    42 r.46                    -1025         -1025               
    43 r.47                  2051.34      -1007.94               
    44 r.48                     1025             2               
    45 r.49                    -1025         -1025               
    46 r.50                  2044.32      -1009.88               
    47 r.51                        2             2               
    48 r.52                       -2         -1025               
    49 r.53                 -17.8311      -1023.17               
    50 r.54                     1024             2               
    51 r.55                    -1024         -1025               
    52 r.56                  2029.34      -1021.85               
    53 r.57                        2             2               
    54 r.58                       -2         -1025               
    55 r.59                 -16.0596      -1022.23               
    56 r.60                     1024             2               
    57 r.61                    -1024         -1025               
    58 r.62                     2048      -1021.05               
    59 r.63                     1025             2               
    60 r.64                    -1025         -1025               
    61 r.65                  2070.92      -1016.27               
    62 r.66                     1025             2               
    63 r.67                    -1025         -1025               
    64 r.68                  2054.99      -1017.01               
    65 r.69                  2.60408             0               
    66 r.70                  18.6637             0               
    67 r.71                  2.60408             0               
    68 r.72                  18.6637             0               
    69 r.73                 -992.001      -992.001               
    70 r.74                  31.9985      -966.366               
    71 r.75                 -992.001      -992.001               
    72 r.76                  31.9985      -966.366               
    73 r.77                  31.9985      -1007.15               
    74 r.78                 -992.001      -1014.92               
    75 r.79                  31.9985      -1007.15               
    76 r.80                 -992.001      -1014.92               
    77 r.81                     1025             2               
    78 r.82                    -1025         -1025               
    79 r.83                     2048       16.0596               
    80 r.84                     1025             2               
    81 r.85                    -1025         -1025               
    82 r.86                     2048       15.5739               
    83 r.87                     1025             2               
    84 r.88                    -1025         -1025               
    85 r.89                  2030.17      -1023.17               
    86 r.90                     1025             2               
    87 r.91                    -1025         -1025               
    88 r.92                  2029.34      -1021.85               
    89 r.93                     1025             2               
    90 r.94                    -1025         -1025               
    91 r.95                  2031.94      -1022.23               
    92 r.96                     1025             2               
    93 r.97                    -1025         -1025               
    94 r.98                     2048      -1021.05               
    95 r.99                     1024             2               
    96 r.100                   -1024         -1025               
    97 r.101                 2070.92      -1016.27               
    98 r.102                       2             2               
    99 r.103                      -2         -1025               
   100 r.104                -1017.01      -1017.01               
   101 r.105                 22.0059             0               
   102 r.106                0.871249             0               
   103 r.107                 22.0059             0               
   104 r.108                0.871249             0               
   105 r.109                -992.001      -992.001               
   106 r.110                 31.9985      -966.366               
   107 r.111                -992.001      -992.001               
   108 r.112                 31.9985      -966.366               
   109 r.113                    1024             2               
   110 r.114                   -1024         -1025               
   111 r.115                    2080      -1007.15               
   112 r.116                       2             2               
   113 r.117                      -2         -1025               
   114 r.118                -992.001      -1014.92               
   115 r.119                       2             2               
   116 r.120                      -2         -1025               
   117 r.121                 17.8311       16.0596               
   118 r.122                    1024             2               
   119 r.123                   -1024         -1025               
   120 r.124                 2066.66       15.5739               
   121 r.125                    1025             2               
   122 r.126                   -1025         -1025               
   123 r.127                 2069.17       16.0607               
   124 r.128                    1025             2               
   125 r.129                   -1025         -1025               
   126 r.130                 2062.99       14.1174               
   127 r.131                       2             2               
   128 r.132                      -2         -1025               
   129 r.133                -1022.23      -1022.23               
   130 r.134                    1024             2               
   131 r.135                   -1024         -1025               
   132 r.136                 2066.66      -1021.05               
   133 r.137                    1025             2               
   134 r.138                   -1025         -1025               
   135 r.139                 2088.75      -1016.27               
   136 r.140                    1025             2               
   137 r.141                   -1025         -1025               
   138 r.142                 2073.65      -1017.01               
   139 r.143                       0             0               
   140 r.144                       0             0               
   141 r.145                       0             0               
   142 r.146                       0             0               
   143 r.147                 -974.17      -992.001               
   144 r.148                 49.8297      -966.366               
   145 r.149                -973.338      -992.001               
   146 r.150                 50.6622      -966.366               
   147 r.151                 49.8297      -1007.15               
   148 r.152                 -974.17      -1014.92               
   149 r.153                 50.6622      -1007.15               
   150 r.154                -973.338      -1014.92               
   151 r.155                       2             2               
   152 r.156                      -2         -1025               
   153 r.157                 16.0596       16.0596               
   154 r.158                    1024             2               
   155 r.159                   -1024         -1025               
   156 r.160                    2048       15.5739               
   157 r.161                    1025             2               
   158 r.162                   -1025         -1025               
   159 r.163                  2067.4       16.0607               
   160 r.164                    1025             2               
   161 r.165                   -1025         -1025               
   162 r.166                 2044.32       14.1174               
   163 r.167                       2             2               
   164 r.168                      -2         -1025               
   165 r.169                 1022.23      0.832539               
   166 r.170                    1024             2               
   167 r.171                   -1024         -1025               
   168 r.172                 2029.34       2.15169               
   169 r.173                    1025             2               
   170 r.174                   -1025         -1025               
   171 r.175                 2086.98      -1016.27               
   172 r.176                    1025             2               
   173 r.177                   -1025         -1025               
   174 r.178                 2054.99      -1017.01               
   175 r.179                0.832538             0               
   176 r.180                 18.6637             0               
   177 r.181                0.832538             0               
   178 r.182                 18.6637             0               
   179 r.183                -975.942      -992.001               
   180 r.184                 48.0581      -966.366               
   181 r.185                -992.001      -992.001               
   182 r.186                 31.9985      -966.366               
   183 r.187                    1025             2               
   184 r.188                   -1025         -1025               
   185 r.189                 2096.06      -1007.15               
   186 r.190                    1025             2               
   187 r.191                   -1025         -1025               
   188 r.192                    2080      -1014.92               
   189 r.193                    1025             2               
   190 r.194                   -1025         -1025               
   191 r.195                 2025.08       16.0596               
   192 r.196                    1025             2               
   193 r.197                   -1025         -1025               
   194 r.198                 2041.01       15.5739               
   195 r.199                    1024             2               
   196 r.200                   -1024         -1025               
   197 r.201                 2028.42       16.0607               
   198 r.202                       2             2               
   199 r.203                      -2         -1025               
   200 r.204                 1013.33       14.1174               
   201 r.205                    1025             2               
   202 r.206                   -1025         -1025               
   203 r.207                 2007.25      0.832539               
   204 r.208                    1025             2               
   205 r.209                   -1025         -1025               
   206 r.210                 2022.35       2.15169               
   207 r.211                    1025             2               
   208 r.212                   -1025         -1025               
   209 r.213                 2009.02       1.77154               
   210 r.214                    1025             2               
   211 r.215                   -1025         -1025               
   212 r.216                 2041.01       2.95282               
   213 r.217                 41.5857             0               
   214 r.218                 18.6637             0               
   215 r.219                 41.5857             0               
   216 r.220                 18.6637             0               
   217 r.221                    1025             2               
   218 r.222                   -1025         -1025               
   219 r.223                 2057.08      -992.001               
   220 r.224                    1025             2               
   221 r.225                   -1025         -1025               
   222 r.226                 2073.01      -966.366               
   223 r.227                 9.07651      -1007.15               
   224 r.228                -1014.92      -1014.92               
   225 r.229                 25.0075      -1007.15               
   226 r.230                -998.993      -1014.92               
   227 r.231                -973.338      -992.001               
   228 r.232                 50.6622      -966.366               
   229 r.233                -973.338      -992.001               
   230 r.234                 50.6622      -966.366               
   231 r.235                    1025             2               
   232 r.236                   -1025         -1025               
   233 r.237                 2038.92       7.72961               
   234 r.238                    1025             2               
   235 r.239                   -1025         -1025               
   236 r.240                 2022.99       6.99104               
   237 r.241                    1025             2               
   238 r.242                   -1025         -1025               
   239 r.243                    2048      -1007.15               
   240 r.244                    1025             2               
   241 r.245                   -1025         -1025               
   242 r.246                    2048      -1014.92               
   243 r.247                    1024             2               
   244 r.248                   -1024         -1025               
   245 r.249                 2019.34       16.0607               
   246 r.250                       2             2               
   247 r.251                      -2         -1025               
   248 r.252                 988.326       14.1174               
   249 r.253                    1025             2               
   250 r.254                   -1025         -1025               
   251 r.255                 1999.94       1.77154               
   252 r.256                    1025             2               
   253 r.257                   -1025         -1025               
   254 r.258                    2016       2.95282               
   255 r.259                    1025             2               
   256 r.260                   -1025         -1025               
   257 r.261                    2048       31.9985               
   258 r.262                    1025             2               
   259 r.263                   -1025         -1025               
   260 r.264                    2048       57.6343               

   No. Column name       Activity     Lower bound   Upper bound
------ ------------    ------------- ------------- -------------
     1 tt                    52.4661             0               
     2 s_1_1        *              1             0             1 
     3 t_1_1                 31.9985             0               
     4 s_1_7        *              1             0             1 
     5 s_2_1        *              0             0             1 
     6 t_2_1                 31.9985             0               
     7 s_2_7        *              0             0             1 
     8 s_1_2        *              0             0             1 
     9 t_1_2                 31.9985             0               
    10 s_2_2        *              1             0             1 
    11 t_2_2                 31.9985             0               
    12 s_1_3        *              1             0             1 
    13 t_1_3                 49.8297             0               
    14 s_2_3        *              0             0             1 
    15 t_2_3                 50.6622             0               
    16 s_1_4        *              1             0             1 
    17 t_1_4                 48.0581             0               
    18 s_2_4        *              0             0             1 
    19 t_2_4                 31.9985             0               
    20 s_1_5        *              0             0             1 
    21 t_1_5                 9.07651             0               
    22 s_1_8        *              0             0             1 
    23 s_2_5        *              1             0             1 
    24 t_2_5                 25.0075             0               
    25 s_2_8        *              1             0             1 
    26 s_1_6        *              0             0             1 
    27 t_1_6                 50.6622             0               
    28 s_2_6        *              1             0             1 
    29 t_2_6                 50.6622             0               
    30 t_1_7                       0             0               
    31 t_2_7                       0             0               
    32 t_1_8                       0             0               
    33 t_2_8                       0             0               
    34 r_1_1_2      *              1             0             1 
    35 u_1_1_2      *              0             0             1 
    36 r_2_1_2      *              1             0             1 
    37 u_2_1_2      *              0             0             1 
    38 r_1_1_3      *              0             0             1 
    39 u_1_1_3      *              0             0             1 
    40 r_2_1_3      *              1             0             1 
    41 u_2_1_3      *              0             0             1 
    42 r_1_1_4      *              0             0             1 
    43 u_1_1_4      *              0             0             1 
    44 r_2_1_4      *              1             0             1 
    45 u_2_1_4      *              0             0             1 
    46 r_1_1_5      *              1             0             1 
    47 u_1_1_5      *              0             0             1 
    48 r_2_1_5      *              1             0             1 
    49 u_2_1_5      *              0             0             1 
    50 r_1_2_3      *              1             0             1 
    51 u_1_2_3      *              0             0             1 
    52 r_2_2_3      *              1             0             1 
    53 u_2_2_3      *              0             0             1 
    54 r_1_2_4      *              1             0             1 
    55 u_1_2_4      *              0             0             1 
    56 r_2_2_4      *              1             0             1 
    57 u_2_2_4      *              0             0             1 
    58 r_1_2_5      *              1             0             1 
    59 u_1_2_5      *              0             0             1 
    60 r_2_2_5      *              0             0             1 
    61 u_2_2_5      *              1             0             1 
    62 r_1_2_8      *              1             0             1 
    63 u_1_2_8      *              0             0             1 
    64 r_2_2_8      *              0             0             1 
    65 u_2_2_8      *              1             0             1 
    66 r_1_3_4      *              0             0             1 
    67 u_1_3_4      *              1             0             1 
    68 r_2_3_4      *              1             0             1 
    69 u_2_3_4      *              0             0             1 
    70 r_1_3_5      *              1             0             1 
    71 u_1_3_5      *              0             0             1 
    72 r_2_3_5      *              1             0             1 
    73 u_2_3_5      *              0             0             1 
    74 r_1_4_5      *              1             0             1 
    75 u_1_4_5      *              0             0             1 
    76 r_2_4_5      *              1             0             1 
    77 u_2_4_5      *              0             0             1 
    78 r_1_4_8      *              1             0             1 
    79 u_1_4_8      *              0             0             1 
    80 r_2_4_8      *              1             0             1 
    81 u_2_4_8      *              0             0             1 
    82 r_1_5_7      *              1             0             1 
    83 u_1_5_7      *              0             0             1 
    84 r_2_5_7      *              1             0             1 
    85 u_2_5_7      *              0             0             1 
    86 r_1_7_8      *              1             0             1 
    87 u_1_7_8      *              0             0             1 
    88 r_2_7_8      *              1             0             1 
    89 u_2_7_8      *              0             0             1 

Integer feasibility conditions:

KKT.PE: max.abs.err = 4.55e-13 on row 61
        max.rel.err = 1.11e-16 on row 236
        High quality

KKT.PB: max.abs.err = 1.14e-13 on row 129
        max.rel.err = 1.11e-16 on row 129
        High quality

End of output
